<?xml version = "1.0" standalone="yes"?>
<!-- This file has been generated by DOcplex version 2.23.222  -->
<CPLEXSolution version="1.0">
 <header
   problemName="CVRP"
   objectiveValue="12018.8"
  />
 <variables>
  <variable name="x_0_1" index="0" value="1.00000"/>
  <variable name="x_0_3" index="2" value="1.00000"/>
  <variable name="x_0_6" index="5" value="1.00000"/>
  <variable name="x_0_7" index="6" value="1.00000"/>
  <variable name="x_0_10" index="9" value="1.00000"/>
  <variable name="x_0_11" index="10" value="1.00000"/>
  <variable name="x_0_12" index="11" value="1.00000"/>
  <variable name="x_0_14" index="13" value="1.00000"/>
  <variable name="x_0_15" index="14" value="1.00000"/>
  <variable name="x_0_17" index="16" value="1.00000"/>
  <variable name="x_0_18" index="17" value="1.00000"/>
  <variable name="x_0_20" index="19" value="1.00000"/>
  <variable name="x_0_22" index="21" value="1.00000"/>
  <variable name="x_0_23" index="22" value="1.00000"/>
  <variable name="x_1_2" index="25" value="1.00000"/>
  <variable name="x_2_0" index="48" value="1.00000"/>
  <variable name="x_3_0" index="72" value="1.00000"/>
  <variable name="x_4_0" index="96" value="1.00000"/>
  <variable name="x_5_0" index="120" value="1.00000"/>
  <variable name="x_6_4" index="148" value="1.00000"/>
  <variable name="x_7_0" index="168" value="1.00000"/>
  <variable name="x_8_16" index="207" value="1.00000"/>
  <variable name="x_9_0" index="216" value="1.00000"/>
  <variable name="x_10_0" index="240" value="1.00000"/>
  <variable name="x_11_24" index="287" value="1.00000"/>
  <variable name="x_12_5" index="293" value="1.00000"/>
  <variable name="x_13_0" index="312" value="1.00000"/>
  <variable name="x_14_0" index="336" value="1.00000"/>
  <variable name="x_15_9" index="369" value="1.00000"/>
  <variable name="x_16_0" index="384" value="1.00000"/>
  <variable name="x_17_0" index="408" value="1.00000"/>
  <variable name="x_18_13" index="445" value="1.00000"/>
  <variable name="x_19_0" index="456" value="1.00000"/>
  <variable name="x_20_8" index="488" value="1.00000"/>
  <variable name="x_21_19" index="523" value="1.00000"/>
  <variable name="x_22_21" index="549" value="1.00000"/>
  <variable name="x_23_0" index="552" value="1.00000"/>
  <variable name="x_24_0" index="576" value="1.00000"/>
  <variable name="u_1" index="600" value="11.00000"/>
  <variable name="u_2" index="601" value="21.00000"/>
  <variable name="u_3" index="602" value="13.00000"/>
  <variable name="u_4" index="603" value="20.00000"/>
  <variable name="u_5" index="604" value="18.00000"/>
  <variable name="u_6" index="605" value="9.00000"/>
  <variable name="u_7" index="606" value="17.00000"/>
  <variable name="u_8" index="607" value="12.00000"/>
  <variable name="u_9" index="608" value="21.00000"/>
  <variable name="u_10" index="609" value="18.00000"/>
  <variable name="u_11" index="610" value="5.00000"/>
  <variable name="u_12" index="611" value="6.00000"/>
  <variable name="u_13" index="612" value="12.00000"/>
  <variable name="u_14" index="613" value="21.00000"/>
  <variable name="u_15" index="614" value="12.00000"/>
  <variable name="u_16" index="615" value="21.00000"/>
  <variable name="u_17" index="616" value="19.00000"/>
  <variable name="u_18" index="617" value="3.00000"/>
  <variable name="u_19" index="618" value="21.00000"/>
  <variable name="u_20" index="619" value="6.00000"/>
  <variable name="u_21" index="620" value="7.00000"/>
  <variable name="u_22" index="621" value="6.00000"/>
  <variable name="u_23" index="622" value="21.00000"/>
  <variable name="u_24" index="623" value="21.00000"/>
 </variables>
</CPLEXSolution>
